n_res = 4;
rc = [ 0, 0, 0, 0 ];
n_tasks = 30;
d = [ 9, 8, 10, 7, 4, 10, 4, 8, 9, 8, 3, 8, 4, 7, 1, 6, 8, 4, 10, 6, 9, 2, 6, 4, 10, 4, 2, 8, 3, 3 ];
rr = [| 0, 0, 0, 0, 0, 0, 0, 0, 0, 0, 0, 0, 0, 0, 0, 0, 0, 0, 0, 0, 0, 0, 0, 0, 0, 0, 0, 0, 0, 0
      | 0, 0, 0, 0, 0, 0, 0, 0, 0, 0, 0, 0, 0, 0, 0, 0, 0, 0, 0, 0, 0, 0, 0, 0, 0, 0, 0, 0, 0, 0
      | 0, 0, 0, 0, 0, 0, 0, 0, 0, 0, 0, 0, 0, 0, 0, 0, 0, 0, 0, 0, 0, 0, 0, 0, 0, 0, 0, 0, 0, 0
      | 0, 0, 0, 0, 0, 0, 0, 0, 0, 0, 0, 0, 0, 0, 0, 0, 0, 0, 0, 0, 0, 0, 0, 0, 0, 0, 0, 0, 0, 0 |];
suc = [ { 4, 5, 8 },
       { 14 },
       { 7, 8, 10 },
       { 6, 19, 23 },
       { 15, 18, 19 },
       { 11 },
       { 21, 22 },
       { 9, 20 },
       { 13, 18, 27 },
       { 16 },
       { 12 },
       { 16, 17 },
       { 19, 25 },
       { 17, 22, 26 },
       { 20, 24 },
       { 21, 27 },
       { 28, 29 },
       { 23 },
       { 26, 28, 30 },
       { 22, 25, 27 },
       { 24 },
       { 28 },
       { 24 },
       { 25, 30 },
       { 26 },
       { 29 },
       { 29, 30 },
       {  },
       {  },
       {  } ];
